
  32    4
  10   10   10   10

   0   0   0   0   0  12 2 3 4 5 6 7 8 11 12 15 30 31 
   5  10  10  10  10   8 29 24 23 21 20 19 13 10 
   7  10  10  10  10   6 23 19 18 14 13 9 
   3  10  10  10  10   7 28 24 21 20 19 18 16 
   3  10  10  10  10   4 27 22 17 16 
   1  10  10  10  10   4 26 21 20 19 
   6  10  10  10  10   3 19 16 13 
   1  10  10  10  10   2 18 13 
   1  10  10  10  10   2 22 16 
   2  10  10  10  10   2 18 16 
   6  10  10  10  10   2 25 18 
   1  10  10  10  10   2 18 17 
   2  10  10  10  10   1 17 
   7  10  10  10  10   1 16 
   7  10  10  10  10   1 17 
   2  10  10  10  10   1 32
   8  10  10  10  10   1 32
   1  10  10  10  10   1 32
   8  10  10  10  10   1 32
   7  10  10  10  10   1 32
   1  10  10  10  10   1 32
   2  10  10  10  10   1 32
   1  10  10  10  10   1 32
   6  10  10  10  10   1 32
   1  10  10  10  10   1 32
   9  10  10  10  10   1 32
  10  10  10  10  10   1 32
   8  10  10  10  10   1 32
   6  10  10  10  10   1 32
   1  10  10  10  10   1 32
  10  10  10  10  10   1 32
   0   0   0   0   0   0 
